
Gurobi 9.0.1 (linux64) logging started Thu Apr 30 05:57:51 2020

Gurobi Optimizer version 9.0.1 build v9.0.1rc0 (linux64)
Optimize a model with 932 rows, 990 columns and 7056 nonzeros
Model fingerprint: 0xf2530c6c
Variable types: 0 continuous, 990 integer (980 binary)
Coefficient statistics:
  Matrix range     [1e+00, 5e+00]
  Objective range  [1e+00, 1e+02]
  Bounds range     [1e+00, 1e+00]
  RHS range        [1e+00, 1e+00]

User MIP start produced solution with objective 568 (0.00s)
Loaded user MIP start with objective 568

Presolve removed 338 rows and 420 columns
Presolve time: 0.06s
Presolved: 594 rows, 570 columns, 4662 nonzeros
Variable types: 0 continuous, 570 integer (562 binary)

Root relaxation: objective 4.064490e+02, 401 iterations, 0.02 seconds

    Nodes    |    Current Node    |     Objective Bounds      |     Work
 Expl Unexpl |  Obj  Depth IntInf | Incumbent    BestBd   Gap | It/Node Time

     0     0  406.44899    0  183  568.00000  406.44899  28.4%     -    0s
     0     0  415.07598    0  175  568.00000  415.07598  26.9%     -    0s
     0     0  416.44998    0  174  568.00000  416.44998  26.7%     -    0s
     0     0  416.79784    0  197  568.00000  416.79784  26.6%     -    0s
     0     0  417.37971    0  190  568.00000  417.37971  26.5%     -    0s
     0     0  417.37971    0  190  568.00000  417.37971  26.5%     -    0s
     0     0  423.85339    0  212  568.00000  423.85339  25.4%     -    0s
H    0     0                     551.0000000  423.85339  23.1%     -    0s
H    0     0                     547.0000000  423.85339  22.5%     -    0s
     0     0  423.89236    0  210  547.00000  423.89236  22.5%     -    0s
     0     0  423.91048    0  213  547.00000  423.91048  22.5%     -    0s
     0     0  423.91065    0  214  547.00000  423.91065  22.5%     -    0s
     0     0  429.07741    0  224  547.00000  429.07741  21.6%     -    0s
H    0     0                     543.0000000  429.07741  21.0%     -    0s
     0     0  429.58711    0  214  543.00000  429.58711  20.9%     -    0s
     0     0  429.63774    0  210  543.00000  429.63774  20.9%     -    0s
     0     0  429.63929    0  211  543.00000  429.63929  20.9%     -    0s
     0     0  432.81441    0  234  543.00000  432.81441  20.3%     -    0s
     0     0  433.76738    0  238  543.00000  433.76738  20.1%     -    0s
     0     0  434.06532    0  236  543.00000  434.06532  20.1%     -    0s
     0     0  434.08960    0  239  543.00000  434.08960  20.1%     -    0s
     0     0  434.09091    0  240  543.00000  434.09091  20.1%     -    0s
     0     0  434.65756    0  220  543.00000  434.65756  20.0%     -    0s
     0     0  434.83523    0  220  543.00000  434.83523  19.9%     -    0s
     0     0  434.86690    0  204  543.00000  434.86690  19.9%     -    0s
     0     0  434.87380    0  206  543.00000  434.87380  19.9%     -    0s
     0     0  435.28836    0  210  543.00000  435.28836  19.8%     -    0s
H    0     0                     475.0000000  435.28836  8.36%     -    0s
H    0     0                     473.0000000  435.28836  7.97%     -    0s
     0     0  435.30391    0  213  473.00000  435.30391  7.97%     -    0s
     0     0  435.68107    0  227  473.00000  435.68107  7.89%     -    0s
H    0     0                     472.0000000  435.68107  7.69%     -    0s
     0     0  435.81317    0  181  472.00000  435.81317  7.67%     -    0s
     0     0  435.82452    0  182  472.00000  435.82452  7.66%     -    0s
     0     0  436.49648    0  185  472.00000  436.49648  7.52%     -    1s
     0     0  436.52508    0  184  472.00000  436.52508  7.52%     -    1s
     0     0  436.52652    0  187  472.00000  436.52652  7.52%     -    1s
     0     0  436.53539    0  189  472.00000  436.53539  7.51%     -    1s
     0     0  436.53539    0  189  472.00000  436.53539  7.51%     -    1s
     0     0  436.55536    0  175  472.00000  436.55536  7.51%     -    1s
     0     0  436.55536    0  193  472.00000  436.55536  7.51%     -    1s
     0     0  436.55536    0  219  472.00000  436.55536  7.51%     -    1s
     0     0  436.55536    0  211  472.00000  436.55536  7.51%     -    1s
     0     0  436.55536    0  213  472.00000  436.55536  7.51%     -    1s
     0     0  436.55536    0  221  472.00000  436.55536  7.51%     -    1s
     0     0  436.55536    0  224  472.00000  436.55536  7.51%     -    1s
     0     0  436.55536    0  224  472.00000  436.55536  7.51%     -    1s
     0     0  436.55536    0  226  472.00000  436.55536  7.51%     -    1s
     0     0  436.81270    0  176  472.00000  436.81270  7.45%     -    1s
     0     0  437.27277    0  214  472.00000  437.27277  7.36%     -    1s
     0     0  437.28560    0  218  472.00000  437.28560  7.35%     -    1s
     0     0  438.31961    0  183  472.00000  438.31961  7.14%     -    1s
     0     0  438.37644    0  213  472.00000  438.37644  7.12%     -    1s
     0     0  438.41980    0  216  472.00000  438.41980  7.11%     -    1s
     0     0  438.42790    0  175  472.00000  438.42790  7.11%     -    1s
     0     0  438.72827    0  163  472.00000  438.72827  7.05%     -    1s
     0     0  438.81001    0  163  472.00000  438.81001  7.03%     -    1s
     0     0  438.81160    0  162  472.00000  438.81160  7.03%     -    1s
     0     0  438.93702    0  173  472.00000  438.93702  7.00%     -    1s
     0     0  438.93702    0  173  472.00000  438.93702  7.00%     -    1s
     0     2  438.98049    0  171  472.00000  438.98049  7.00%     -    2s
*   81    26               9     469.0000000  451.48855  3.73%  84.9    2s
H  102    15                     468.0000000  461.23037  1.45%  71.9    2s
*  105    14              12     467.0000000  461.23037  1.24%  69.9    2s

Cutting planes:
  Clique: 1
  MIR: 27
  StrongCG: 2
  Zero half: 37
  RLT: 101

Explored 129 nodes (13255 simplex iterations) in 2.82 seconds
Thread count was 1 (of 40 available processors)

Solution count 10: 467 468 469 ... 568

Optimal solution found (tolerance 1.00e-04)
Best objective 4.670000000000e+02, best bound 4.670000000000e+02, gap 0.0000%

User-callback calls 1165, time in user-callback 0.00 sec
